"","biasModel","feat","z","coef_lm","coef_rlm"
"1","N","mu_x","(Intercept)",4.12173675020267e-05,4.25205973865001e-05
"2","N","mu_x","y",-3.9652266855251e-18,-5.50958918142091e-08
"3","N","mu_x","x",0.667242713774194,0.664169218829154
"4","N","mu_x","I(x^2)",-0.000198705842552242,-0.000185608513745957
"5","N","mu_x","I(x^3)",-0.178015769491066,-0.174439048111691
"6","N","mu_x","I(x^4)",0.000270598035465788,9.92456915549705e-05
"7","N","mu_x","I(y^2)",0.000345957681126847,0.000291023709103492
"8","N","mu_x","I(y^3)",-1.40558486743374e-16,1.4449982605752e-07
"9","N","mu_x","I(y^4)",-0.000978392324043005,-0.000819091151908674
"10","N","mu_x","y:x",-2.86688036497484e-16,-1.85389938223107e-06
"11","N","mu_x","y:I(x^2)",5.51843198280406e-16,1.2263569156994e-06
"12","N","mu_x","y:I(x^3)",5.61982334087901e-16,9.27257473889777e-06
"13","N","mu_x","y:I(x^4)",-1.24397562926465e-15,-3.31311835528322e-06
"14","N","mu_x","x:I(y^2)",-0.0811350023928809,-0.0505063651610629
"15","N","mu_x","x:I(y^3)",6.24500217014204e-16,-5.20208888673242e-06
"16","N","mu_x","x:I(y^4)",-0.571077274502057,-0.656162464091719
"17","N","mu_y","(Intercept)",-2.90684013502306e-17,4.08607713386625e-09
"18","N","mu_y","y",0.732877760907347,0.736268744124234
"19","N","mu_y","x",1.31619634195403e-16,2.96162379284262e-07
"20","N","mu_y","I(x^2)",-3.41362744688232e-16,-4.77761224447035e-07
"21","N","mu_y","I(x^3)",-2.89023879376348e-16,-3.95653098768171e-07
"22","N","mu_y","I(x^4)",7.15902654509332e-16,1.26558623794185e-06
"23","N","mu_y","I(y^2)",8.75616562320329e-16,4.40703814366263e-07
"24","N","mu_y","I(y^3)",-0.2758554932956,-0.294717995762723
"25","N","mu_y","I(y^4)",-2.7284520422327e-15,-1.18179575344024e-06
"26","N","mu_y","y:x",-0.000215248467892946,-0.000291216676427897
"27","N","mu_y","y:I(x^2)",-0.11627994544686,-0.120807886928772
"28","N","mu_y","y:I(x^3)",0.000198078593093397,0.00054103400998962
"29","N","mu_y","y:I(x^4)",-0.0564855818016439,-0.0495005500845099
"30","N","mu_y","x:I(y^2)",-1.25428361542592e-15,-9.55214011151129e-06
"31","N","mu_y","x:I(y^3)",0.00053448399370324,0.000653619511540838
"32","N","mu_y","x:I(y^4)",4.34385177031973e-15,4.08478914343943e-05
"33","N","sigma_xx","(Intercept)",0.0991284310647214,0.100776900115224
"34","N","sigma_xx","y",1.36146776767121e-17,8.02244647928819e-08
"35","N","sigma_xx","x",8.50288578477454e-05,0.000108247392365014
"36","N","sigma_xx","I(x^2)",0.168513509463559,0.166294085430655
"37","N","sigma_xx","I(x^3)",-0.000108758964605467,-0.000167100357355941
"38","N","sigma_xx","I(x^4)",-0.029910010772207,-0.0292488776048949
"39","N","sigma_xx","I(y^2)",0.0483246310187834,0.0363674310348035
"40","N","sigma_xx","I(y^3)",-4.56230518663963e-17,-4.12747523172843e-07
"41","N","sigma_xx","I(y^4)",0.290898201419292,0.315695910846384
"42","N","sigma_xx","y:x",4.67276434249251e-17,6.45038276570043e-08
"43","N","sigma_xx","y:I(x^2)",-4.6362109897457e-16,-7.07088903329566e-07
"44","N","sigma_xx","y:I(x^3)",-3.5979305244579e-16,-1.55375902424745e-06
"45","N","sigma_xx","y:I(x^4)",1.01883952849761e-15,5.00638542308436e-06
"46","N","sigma_xx","x:I(y^2)",-0.000655767138137682,-0.00119655731326873
"47","N","sigma_xx","x:I(y^3)",2.95453502280916e-16,8.32633042517899e-07
"48","N","sigma_xx","x:I(y^4)",0.001910205563757,0.00340197509168593
"49","N","sigma_xy","(Intercept)",1.88843127808116e-19,4.4160086356142e-11
"50","N","sigma_xy","y",4.65489911847929e-06,1.10310662164263e-05
"51","N","sigma_xy","x",6.65965088619938e-18,-8.68284523290101e-10
"52","N","sigma_xy","I(x^2)",-2.46080896864157e-17,8.60186637608826e-10
"53","N","sigma_xy","I(x^3)",-8.70691047156841e-18,1.77522674474564e-09
"54","N","sigma_xy","I(x^4)",4.20019384998813e-17,-2.19327741140418e-09
"55","N","sigma_xy","I(y^2)",2.20926285092801e-17,-5.60052920824906e-09
"56","N","sigma_xy","I(y^3)",1.18656356755462e-05,2.34710521953463e-05
"57","N","sigma_xy","I(y^4)",-8.12602567076558e-17,3.49270460922088e-08
"58","N","sigma_xy","y:x",0.0742259475615624,0.0771372974693778
"59","N","sigma_xy","y:I(x^2)",-4.0432993929604e-05,-0.000172376139482253
"60","N","sigma_xy","y:I(x^3)",-0.0317621392943092,-0.0333544255892715
"61","N","sigma_xy","y:I(x^4)",-9.48362209710625e-07,8.64749547587965e-05
"62","N","sigma_xy","x:I(y^2)",-1.14858764277512e-16,2.74067343149936e-08
"63","N","sigma_xy","x:I(y^3)",-0.0355610544674889,-0.053771954946235
"64","N","sigma_xy","x:I(y^4)",4.10165859607528e-16,-1.42619897464211e-07
"65","N","sigma_yy","(Intercept)",0.0358977329396084,0.0358354883661606
"66","N","sigma_yy","y",3.78963625264086e-19,1.70770832117969e-07
"67","N","sigma_yy","x",8.73959881620239e-06,1.92958908976933e-05
"68","N","sigma_yy","I(x^2)",0.0352396131626556,0.0344745857941664
"69","N","sigma_yy","I(x^3)",2.43555144387872e-06,-8.02073537199599e-06
"70","N","sigma_yy","I(x^4)",0.00935559818968444,0.0110363397377592
"71","N","sigma_yy","I(y^2)",0.18610679843785,0.189316770029878
"72","N","sigma_yy","I(y^3)",-7.70148216561598e-18,-1.95022535501913e-06
"73","N","sigma_yy","I(y^4)",-0.156045156889379,-0.166805670826323
"74","N","sigma_yy","y:x",-3.37652795405621e-17,-1.84957206233193e-06
"75","N","sigma_yy","y:I(x^2)",5.16213995451393e-17,2.07254339870754e-06
"76","N","sigma_yy","y:I(x^3)",7.78355613752524e-17,3.22477567708551e-06
"77","N","sigma_yy","y:I(x^4)",-1.24834174466263e-16,-4.97661688772324e-06
"78","N","sigma_yy","x:I(y^2)",3.50511120750791e-05,-0.000260813477523048
"79","N","sigma_yy","x:I(y^3)",5.74726575816122e-17,5.92813414426509e-06
"80","N","sigma_yy","x:I(y^4)",-0.000534284627241404,0.000586182246668556
"81","tN","mu_x","(Intercept)",0.110302041715705,0.000131255148611559
"82","tN","mu_x","y",0.327732607083822,-8.19207455854168e-06
"83","tN","mu_x","x",-1.84126503575421,0.593108426443016
"84","tN","mu_x","I(x^2)",-0.974343807460246,-0.00161459141008319
"85","tN","mu_x","I(x^3)",12.5631486913345,0.748985580074084
"86","tN","mu_x","I(x^4)",1.24470540084139,0.00600100673086191
"87","tN","mu_x","I(y^2)",1.83799955379985,-0.000915641641058632
"88","tN","mu_x","I(y^3)",0.0292495045301104,-0.000163088021287718
"89","tN","mu_x","I(y^4)",-6.39706169573709,0.00200040001075642
"90","tN","mu_x","y:x",2.4817276622173,-0.000234982389738586
"91","tN","mu_x","y:I(x^2)",-0.546554857525863,-0.000669353894412029
"92","tN","mu_x","y:I(x^3)",-3.92518310406859,0.000527166150772131
"93","tN","mu_x","y:I(x^4)",0.752759075623225,-0.000278835355242574
"94","tN","mu_x","x:I(y^2)",-29.5389383016222,-0.152282287774022
"95","tN","mu_x","x:I(y^3)",-4.08641901925455,-0.00144951887079752
"96","tN","mu_x","x:I(y^4)",117.403964466226,2.04383995094599
"97","tN","mu_y","(Intercept)",-0.0933225095390221,0.00266174579637454
"98","tN","mu_y","y",-0.528818262575829,0.670348542224383
"99","tN","mu_y","x",0.90268456339589,0.000797828865138131
"100","tN","mu_y","I(x^2)",-0.40802288043668,-0.0127384042547947
"101","tN","mu_y","I(x^3)",-2.72022286514134,-0.00797256796694487
"102","tN","mu_y","I(x^4)",-0.0276498744599924,0.0273764006243322
"103","tN","mu_y","I(y^2)",7.15635299866548,-0.130336254759982
"104","tN","mu_y","I(y^3)",10.9863918011745,0.900064968283973
"105","tN","mu_y","I(y^4)",-18.3374565945653,0.870992970381851
"106","tN","mu_y","y:x",3.94226677577255,-0.0342261807981822
"107","tN","mu_y","y:I(x^2)",-1.6643042325665,-0.329308496190268
"108","tN","mu_y","y:I(x^3)",-7.72399440564803,0.0361126037474424
"109","tN","mu_y","y:I(x^4)",11.5299883338277,1.08987368966825
"110","tN","mu_y","x:I(y^2)",14.5172610521003,0.140287971656347
"111","tN","mu_y","x:I(y^3)",2.94545087839518,0.275536319082214
"112","tN","mu_y","x:I(y^4)",-56.1806922623815,-1.08819535763317
"113","tN","sigma_xx","(Intercept)",0.31140047673737,0.0956915962241237
"114","tN","sigma_xx","y",1.25649841792097,-0.000117083107008613
"115","tN","sigma_xx","x",0.471957029827358,2.30588281485078e-05
"116","tN","sigma_xx","I(x^2)",-6.72014641394631,0.239686278094515
"117","tN","sigma_xx","I(x^3)",-1.1973225810628,0.000922164042136501
"118","tN","sigma_xx","I(x^4)",16.8975602055836,0.642354460257854
"119","tN","sigma_xx","I(y^2)",2.4071963441686,0.0873490657679626
"120","tN","sigma_xx","I(y^3)",-1.50848391484403,0.000329649359116927
"121","tN","sigma_xx","I(y^4)",2.52375655330398,0.406987225226179
"122","tN","sigma_xx","y:x",7.90617431407639,-0.000220291541796531
"123","tN","sigma_xx","y:I(x^2)",0.189718716397816,-0.00226246492426557
"124","tN","sigma_xx","y:I(x^3)",-12.6875777413463,0.000207342416313345
"125","tN","sigma_xx","y:I(x^4)",-3.94491604688194,0.00863201141474689
"126","tN","sigma_xx","x:I(y^2)",4.50899064609429,-0.00491028953709763
"127","tN","sigma_xx","x:I(y^3)",-12.7198902873592,-0.00207569415990456
"128","tN","sigma_xx","x:I(y^4)",-4.96047996954776,0.0139451542237599
"129","tN","sigma_xy","(Intercept)",-0.0496448083252932,-6.91251936774531e-05
"130","tN","sigma_xy","y",0.427534697901461,0.000156111146981988
"131","tN","sigma_xy","x",0.0626291568158122,-7.98009950673538e-05
"132","tN","sigma_xy","I(x^2)",0.254223397631211,0.000444921072666287
"133","tN","sigma_xy","I(x^3)",-0.233390662295572,0.000138566841685985
"134","tN","sigma_xy","I(x^4)",0.14052410362501,-0.000730058988374259
"135","tN","sigma_xy","I(y^2)",-1.49650992431249,0.000232928821029644
"136","tN","sigma_xy","I(y^3)",-2.39122951257782,0.000410114712626597
"137","tN","sigma_xy","I(y^4)",6.44227435293564,0.000102196248445785
"138","tN","sigma_xy","y:x",4.25613299092642,0.0105164114916074
"139","tN","sigma_xy","y:I(x^2)",0.245862894238702,-0.00628383229630957
"140","tN","sigma_xy","y:I(x^3)",-4.60645617846553,0.28067516511076
"141","tN","sigma_xy","y:I(x^4)",-2.87966828262668,0.018165396856875
"142","tN","sigma_xy","x:I(y^2)",2.65783513563648,0.000936111274572723
"143","tN","sigma_xy","x:I(y^3)",-17.413642176299,0.292639768245473
"144","tN","sigma_xy","x:I(y^4)",-17.9825079103478,-0.00251998240806229
"145","tN","sigma_yy","(Intercept)",-0.379652509320979,0.0345744747896729
"146","tN","sigma_yy","y",3.64169070770517,-0.00221477640960898
"147","tN","sigma_yy","x",2.10428176725976,-0.00115471312650646
"148","tN","sigma_yy","I(x^2)",-1.11017516085792,0.0440426586380915
"149","tN","sigma_yy","I(x^3)",-5.99155650088132,0.00468360276228295
"150","tN","sigma_yy","I(x^4)",0.941337263112022,0.0174351725134311
"151","tN","sigma_yy","I(y^2)",21.917653829755,0.142391433140695
"152","tN","sigma_yy","I(y^3)",-1.05706646184877,0.0234859719190428
"153","tN","sigma_yy","I(y^4)",-45.7959187160633,1.02414558872387
"154","tN","sigma_yy","y:x",21.512750989674,0.0194326328731958
"155","tN","sigma_yy","y:I(x^2)",0.267675580462877,-0.00375372760240875
"156","tN","sigma_yy","y:I(x^3)",-36.9355961806925,-0.0355890397029549
"157","tN","sigma_yy","y:I(x^4)",-8.82298630281549,0.0163904618651224
"158","tN","sigma_yy","x:I(y^2)",23.3719649088797,-0.0678802174960853
"159","tN","sigma_yy","x:I(y^3)",-18.6358869031087,-0.114111346742624
"160","tN","sigma_yy","x:I(y^4)",-47.5719079655698,0.683845989192367
