"","biasModel","feat","z","coef_lm","coef_rlm"
"1","N","mu_x","(Intercept)",0.000124358286640646,0.000116550021331721
"2","N","mu_x","y",2.10561174660597e-16,-2.06531406208746e-11
"3","N","mu_x","x",0.732574515237492,0.733338574525063
"4","N","mu_x","I(x^2)",-0.000563436683172074,-0.00047629277502243
"5","N","mu_x","I(x^3)",-0.173687138873246,-0.17261640463086
"6","N","mu_x","I(x^4)",0.00128878448725311,0.00112363268531656
"7","N","mu_x","I(y^2)",-0.000872998935222053,-0.000612921439451147
"8","N","mu_x","I(y^3)",4.29962627055901e-16,6.96529332001782e-10
"9","N","mu_x","I(y^4)",0.00418992450785419,0.00254746838631357
"10","N","mu_x","y:x",1.00342547455722e-15,4.64505305384975e-12
"11","N","mu_x","y:I(x^2)",-2.27609574970192e-15,-5.55410780512421e-10
"12","N","mu_x","y:I(x^3)",-3.36130793554064e-15,-2.66352883888419e-11
"13","N","mu_x","y:I(x^4)",7.50571862449e-15,1.14963072811207e-09
"14","N","mu_x","x:I(y^2)",0.0896525393528147,0.083199703094072
"15","N","mu_x","x:I(y^3)",-2.4198239783881e-15,3.90524890530334e-11
"16","N","mu_x","x:I(y^4)",-2.01476541443051,-1.99188043052831
"17","N","mu_y","(Intercept)",1.88147465763173e-17,-3.67088911529856e-08
"18","N","mu_y","y",0.781488283711738,0.786369626080268
"19","N","mu_y","x",-2.06953486835315e-16,-1.99123393484162e-08
"20","N","mu_y","I(x^2)",6.17348428847607e-16,2.57511940652857e-07
"21","N","mu_y","I(x^3)",7.23161876097547e-16,-3.51220406207516e-08
"22","N","mu_y","I(x^4)",-1.79218728164455e-15,-5.04505522144656e-07
"23","N","mu_y","I(y^2)",-5.63169348176357e-16,3.8044726512255e-06
"24","N","mu_y","I(y^3)",-0.377712444553593,-0.396323385505225
"25","N","mu_y","I(y^4)",2.07761504732576e-15,-4.60671335011658e-05
"26","N","mu_y","y:x",-0.000426017124791593,-0.000979539815876207
"27","N","mu_y","y:I(x^2)",-0.136382844385494,-0.162675229664339
"28","N","mu_y","y:I(x^3)",0.00141154909784618,0.00243335344419673
"29","N","mu_y","y:I(x^4)",-0.00588160278236033,0.0408835119906742
"30","N","mu_y","x:I(y^2)",1.71659446028582e-15,4.51741130241289e-06
"31","N","mu_y","x:I(y^3)",-0.000412686453290217,5.85092160358697e-05
"32","N","mu_y","x:I(y^4)",-9.11133683379495e-15,-5.54461885140504e-05
"33","N","sigma_xx","(Intercept)",0.0892854426787099,0.0913551906865152
"34","N","sigma_xx","y",-4.96766074567217e-18,1.0651154300072e-12
"35","N","sigma_xx","x",7.11979909412721e-05,8.26630291773657e-05
"36","N","sigma_xx","I(x^2)",0.136269882523413,0.123869209933447
"37","N","sigma_xx","I(x^3)",-0.000244893913640216,-0.000455058605610095
"38","N","sigma_xx","I(x^4)",-0.019394200255896,0.00207897083046955
"39","N","sigma_xx","I(y^2)",0.0924254020826626,0.0699858278936699
"40","N","sigma_xx","I(y^3)",2.9869695017982e-16,-3.83034338557363e-12
"41","N","sigma_xx","I(y^4)",0.00478772624584624,0.0595824535992596
"42","N","sigma_xx","y:x",6.87866182605164e-16,-6.31435509288254e-12
"43","N","sigma_xx","y:I(x^2)",-2.38856804880463e-15,-2.43756077779391e-11
"44","N","sigma_xx","y:I(x^3)",-3.1906201098152e-15,3.20620808629038e-11
"45","N","sigma_xx","y:I(x^4)",7.90784353820909e-15,8.04817623372296e-11
"46","N","sigma_xx","x:I(y^2)",0.000199321368819532,0.00158175617537492
"47","N","sigma_xx","x:I(y^3)",-1.03421785887226e-16,-1.41289714300164e-11
"48","N","sigma_xx","x:I(y^4)",-0.000326176918155706,-0.00512942383151376
"49","N","sigma_xy","(Intercept)",1.61092742537845e-18,2.52811630492921e-16
"50","N","sigma_xy","y",6.25407353457895e-05,7.46797269214148e-05
"51","N","sigma_xy","x",2.20204943137098e-18,9.37711097930331e-15
"52","N","sigma_xy","I(x^2)",-8.53144969438153e-17,1.01267535505552e-14
"53","N","sigma_xy","I(x^3)",-2.93304800166145e-18,-3.07612454174829e-14
"54","N","sigma_xy","I(x^4)",1.43687746297123e-16,-3.6136590001289e-14
"55","N","sigma_xy","I(y^2)",1.95264806094186e-16,-2.29505903130481e-14
"56","N","sigma_xy","I(y^3)",-0.000132278465508521,-0.000686269812813602
"57","N","sigma_xy","I(y^4)",-9.50370104062289e-16,1.22844831889012e-13
"58","N","sigma_xy","y:x",0.0863815038025911,0.0896790344633011
"59","N","sigma_xy","y:I(x^2)",-0.000515602003808862,0.000228344026123351
"60","N","sigma_xy","y:I(x^3)",0.00118047532566094,-0.00822501741623925
"61","N","sigma_xy","y:I(x^4)",0.000563316112292657,-0.00162960663405163
"62","N","sigma_xy","x:I(y^2)",-1.04061018705884e-17,-1.22242045361299e-13
"63","N","sigma_xy","x:I(y^3)",-0.230544069566087,-0.211234638379242
"64","N","sigma_xy","x:I(y^4)",-5.44936413504483e-18,6.41575048957469e-13
"65","N","sigma_yy","(Intercept)",0.0357751882385586,0.0356534926218639
"66","N","sigma_yy","y",1.18132413468034e-17,6.88595139089614e-08
"67","N","sigma_yy","x",8.63318931970972e-06,6.8436429579883e-06
"68","N","sigma_yy","I(x^2)",0.0358068728599899,0.0361021967921768
"69","N","sigma_yy","I(x^3)",-3.22131122869375e-05,-3.70171964094336e-05
"70","N","sigma_yy","I(x^4)",-0.0121391476688926,-0.0134971484165942
"71","N","sigma_yy","I(y^2)",0.121768376736453,0.123363372744064
"72","N","sigma_yy","I(y^3)",2.43008795191331e-17,-1.1307039334334e-06
"73","N","sigma_yy","I(y^4)",0.019404997762136,0.026253046514398
"74","N","sigma_yy","y:x",1.63438945945768e-16,-1.00770044075329e-08
"75","N","sigma_yy","y:I(x^2)",-6.90666461981233e-16,2.45844258973077e-08
"76","N","sigma_yy","y:I(x^3)",-7.40294943166948e-16,3.08674724624178e-09
"77","N","sigma_yy","y:I(x^4)",2.12994505941492e-15,-3.10090661045058e-08
"78","N","sigma_yy","x:I(y^2)",-1.11478564602131e-05,0.00011405864325994
"79","N","sigma_yy","x:I(y^3)",-6.34345439302629e-17,1.27789519323397e-07
"80","N","sigma_yy","x:I(y^4)",0.000300095291923513,-0.00167475549048709
"81","tN","mu_x","(Intercept)",0.320890534565748,-0.000105213040399171
"82","tN","mu_x","y",0.510937796246196,2.33666629621218e-06
"83","tN","mu_x","x",1.07404321100302,0.698686136167439
"84","tN","mu_x","I(x^2)",-1.57917498847482,0.00563125889216599
"85","tN","mu_x","I(x^3)",6.24626226670311,0.500355083766185
"86","tN","mu_x","I(x^4)",7.73039315138152,-0.0224952390970694
"87","tN","mu_x","I(y^2)",-9.71955154357068,0.000716250429836147
"88","tN","mu_x","I(y^3)",-2.65197388947842,-7.4359363023941e-05
"89","tN","mu_x","I(y^4)",40.5018258564536,-0.000504618675928725
"90","tN","mu_x","y:x",1.98456570350402,0.00212740330620843
"91","tN","mu_x","y:I(x^2)",-4.44084833819088,0.000496401454024801
"92","tN","mu_x","y:I(x^3)",3.31765808345261,-0.00999559310319833
"93","tN","mu_x","y:I(x^4)",14.9323053232634,-0.00257980559995023
"94","tN","mu_x","x:I(y^2)",-52.7609064347055,-0.0773642761254299
"95","tN","mu_x","x:I(y^3)",-20.8643973306126,-0.00620186993097085
"96","tN","mu_x","x:I(y^4)",256.540200718294,-0.394070197685491
"97","tN","mu_y","(Intercept)",0.00369157346356942,-3.40830813353108e-05
"98","tN","mu_y","y",0.73814353118502,0.757644246766185
"99","tN","mu_y","x",0.00631083874581569,-2.12391437722979e-05
"100","tN","mu_y","I(x^2)",-0.0181510647664151,0.000272027564730072
"101","tN","mu_y","I(x^3)",0.0537273173716239,-0.000540443434350472
"102","tN","mu_y","I(x^4)",0.0889256864282664,-0.00105573740490815
"103","tN","mu_y","I(y^2)",-0.111877207646449,0.00110382043861418
"104","tN","mu_y","I(y^3)",0.59146452433492,0.211871745012772
"105","tN","mu_y","I(y^4)",0.466179667522502,-0.00588138767282087
"106","tN","mu_y","y:x",0.022338528947664,0.000180306984247089
"107","tN","mu_y","y:I(x^2)",-0.424623891403525,-0.154096888195361
"108","tN","mu_y","y:I(x^3)",0.0396745382665574,-0.00176529396026162
"109","tN","mu_y","y:I(x^4)",1.25239632531477,0.64905604367192
"110","tN","mu_y","x:I(y^2)",-0.588147903618968,0.00537142435915919
"111","tN","mu_y","x:I(y^3)",-0.240756251048442,-0.00278370020489664
"112","tN","mu_y","x:I(y^4)",2.87308479818331,-0.0297579887395474
"113","tN","sigma_xx","(Intercept)",0.664499630188582,0.0917880238329106
"114","tN","sigma_xx","y",0.892922943476643,1.65515684058843e-08
"115","tN","sigma_xx","x",0.957561174806806,-0.000110150926607799
"116","tN","sigma_xx","I(x^2)",-2.92800210796369,0.0478006956063466
"117","tN","sigma_xx","I(x^3)",8.15231527562623,0.000401513253358647
"118","tN","sigma_xx","I(x^4)",15.1050686382078,0.919633825180798
"119","tN","sigma_xx","I(y^2)",-16.9692800781949,0.164058347342845
"120","tN","sigma_xx","I(y^3)",-4.63463135593784,-1.03618216169844e-07
"121","tN","sigma_xx","I(y^4)",71.1241302727195,-0.249457965265282
"122","tN","sigma_xx","y:x",3.46825829389436,-1.28140844663284e-08
"123","tN","sigma_xx","y:I(x^2)",-7.76089652949553,-3.00948386803411e-07
"124","tN","sigma_xx","y:I(x^3)",5.79799154240131,5.90327056871743e-07
"125","tN","sigma_xx","y:I(x^4)",26.0959320686606,1.67466582840907e-06
"126","tN","sigma_xx","x:I(y^2)",-89.2447194521327,0.00315056724286527
"127","tN","sigma_xx","x:I(y^3)",-36.4629495316184,-6.34759015400476e-07
"128","tN","sigma_xx","x:I(y^4)",435.966431414164,-0.00613688050180235
"129","tN","sigma_xy","(Intercept)",-0.00541944832593158,-1.4491453031227e-05
"130","tN","sigma_xy","y",-0.00857056494337932,9.50755602679032e-05
"131","tN","sigma_xy","x",-0.00926324524731919,-1.47760189319742e-05
"132","tN","sigma_xy","I(x^2)",0.0266492549358758,0.000152214963703094
"133","tN","sigma_xy","I(x^3)",-0.0788753069962589,-0.000449631198796881
"134","tN","sigma_xy","I(x^4)",-0.130551648637313,-0.000783030621852942
"135","tN","sigma_xy","I(y^2)",0.16423778512937,0.000453929923038808
"136","tN","sigma_xy","I(y^3)",0.0447627625770008,-0.000674384339528085
"137","tN","sigma_xy","I(y^4)",-0.684360127039172,-0.00209949736781746
"138","tN","sigma_xy","y:x",0.0335380860885323,0.0688075908615128
"139","tN","sigma_xy","y:I(x^2)",0.0744845770019831,0.000801843317704517
"140","tN","sigma_xy","y:I(x^3)",0.19340940926123,0.211259917691331
"141","tN","sigma_xy","y:I(x^4)",-0.252121955440496,-0.00604404420897486
"142","tN","sigma_xy","x:I(y^2)",0.863407603529676,0.00328973728840586
"143","tN","sigma_xy","x:I(y^3)",0.115560664421467,-0.164552399310554
"144","tN","sigma_xy","x:I(y^4)",-4.21773802391997,-0.016259767362797
"145","tN","sigma_yy","(Intercept)",0.107068131407755,0.0348473946261466
"146","tN","sigma_yy","y",0.113709169017262,2.49298805913171e-05
"147","tN","sigma_yy","x",0.121902402342345,9.0409705956319e-05
"148","tN","sigma_yy","I(x^2)",-0.307966092099963,0.0437493469964557
"149","tN","sigma_yy","I(x^3)",1.03793356772115,4.61252536383734e-05
"150","tN","sigma_yy","I(x^4)",1.70590392138694,-0.0174442870447068
"151","tN","sigma_yy","I(y^2)",-2.09526499297441,0.126833690923331
"152","tN","sigma_yy","I(y^3)",-0.590196594267428,-0.000248983689317144
"153","tN","sigma_yy","I(y^4)",10.0135197043858,0.605503201152424
"154","tN","sigma_yy","y:x",0.441664951508704,-0.000782088207490152
"155","tN","sigma_yy","y:I(x^2)",-0.988310471397955,-8.1809025535586e-05
"156","tN","sigma_yy","y:I(x^3)",0.738344562688987,0.000961404016115589
"157","tN","sigma_yy","y:I(x^4)",3.32318345256933,0.000541696561196018
"158","tN","sigma_yy","x:I(y^2)",-11.3618704820305,-0.005239338604766
"159","tN","sigma_yy","x:I(y^3)",-4.64337009299709,0.0117349403000941
"160","tN","sigma_yy","x:I(y^4)",55.5023982590102,0.0329632536043203
