"","biasModel","feat","z","coef_lm","coef_rlm"
"1","N","mu_x","(Intercept)",6.7581236478395e-05,8.68816842390004e-05
"2","N","mu_x","y",-1.44540121361455e-17,1.78604720265485e-07
"3","N","mu_x","x",0.742128545192739,0.740113089714766
"4","N","mu_x","I(x^2)",3.21673107553988e-05,-5.07726682189065e-05
"5","N","mu_x","I(x^3)",-0.208207919651697,-0.204146309742079
"6","N","mu_x","I(x^4)",-0.000267997736781412,-0.000171484460791681
"7","N","mu_x","I(y^2)",0.000128861983789953,-0.000403835486390868
"8","N","mu_x","I(y^3)",5.90444540260874e-17,3.49714784007154e-07
"9","N","mu_x","I(y^4)",-0.00114126910639031,0.000577106114030093
"10","N","mu_x","y:x",-8.36062957156623e-17,3.47715667513848e-07
"11","N","mu_x","y:I(x^2)",-5.84339936308797e-16,-8.25313709477547e-06
"12","N","mu_x","y:I(x^3)",-4.13327068784696e-16,-6.79345630435677e-07
"13","N","mu_x","y:I(x^4)",1.59665535186731e-15,2.17455080950594e-05
"14","N","mu_x","x:I(y^2)",-0.308759382780616,-0.292690985270698
"15","N","mu_x","x:I(y^3)",1.03489567229912e-15,-9.68317546925842e-07
"16","N","mu_x","x:I(y^4)",-0.292347317793724,-0.338748900065963
"17","N","mu_y","(Intercept)",1.04265554838155e-16,9.49273123106224e-12
"18","N","mu_y","y",0.765031017010665,0.767907727978516
"19","N","mu_y","x",1.67193323865084e-16,3.45293804669729e-09
"20","N","mu_y","I(x^2)",-2.11542439227463e-15,-6.13355191690375e-10
"21","N","mu_y","I(x^3)",-1.63841956195125e-15,-6.50850737386544e-09
"22","N","mu_y","I(x^4)",4.58495961374635e-15,1.28696914695259e-09
"23","N","mu_y","I(y^2)",-1.34719582848092e-15,4.60595399437709e-10
"24","N","mu_y","I(y^3)",-0.317407706614048,-0.334653619813172
"25","N","mu_y","I(y^4)",4.61148425334437e-15,-9.406409254991e-10
"26","N","mu_y","y:x",-0.00018685860377263,-0.000244682445361533
"27","N","mu_y","y:I(x^2)",-0.152071716575187,-0.14205836265647
"28","N","mu_y","y:I(x^3)",-6.44190052945162e-05,0.000354294679270011
"29","N","mu_y","y:I(x^4)",-0.00142362075365157,-0.0296864122938739
"30","N","mu_y","x:I(y^2)",7.77029134940355e-15,-6.0446408873192e-08
"31","N","mu_y","x:I(y^3)",0.000676733848136489,0.00058337821046215
"32","N","mu_y","x:I(y^4)",-2.44882736111499e-14,2.1204953498338e-07
"33","N","sigma_xx","(Intercept)",0.09558232605562,0.0962736944690753
"34","N","sigma_xx","y",-8.52539009780618e-17,-1.73724552026432e-14
"35","N","sigma_xx","x",5.3005207416897e-05,0.00010611141288005
"36","N","sigma_xx","I(x^2)",0.133858413689061,0.140502110792367
"37","N","sigma_xx","I(x^3)",-8.19107759875683e-05,-0.000335954113670115
"38","N","sigma_xx","I(x^4)",-0.000324264081219191,-0.0189517051729764
"39","N","sigma_xx","I(y^2)",0.122635758272905,0.115908437582435
"40","N","sigma_xx","I(y^3)",2.07597407080675e-16,1.20664754968178e-13
"41","N","sigma_xx","I(y^4)",0.169000310701248,0.176779686137343
"42","N","sigma_xx","y:x",1.71523878813631e-19,-1.31426917617776e-13
"43","N","sigma_xx","y:I(x^2)",5.12164928904313e-16,-2.12411677886756e-13
"44","N","sigma_xx","y:I(x^3)",8.40818098169364e-17,2.71100275163841e-13
"45","N","sigma_xx","y:I(x^4)",-8.35517112929629e-16,8.20044582690506e-13
"46","N","sigma_xx","x:I(y^2)",-0.00033446892395523,-7.30815944654621e-05
"47","N","sigma_xx","x:I(y^3)",-1.73857232444179e-16,4.72721144847945e-13
"48","N","sigma_xx","x:I(y^4)",0.00153682457876166,0.000678952537587524
"49","N","sigma_xy","(Intercept)",-5.87850956117673e-20,3.97683642371786e-10
"50","N","sigma_xy","y",-6.64498403378424e-06,-1.54735440160197e-05
"51","N","sigma_xy","x",-4.61117566730907e-18,-8.51247531875468e-08
"52","N","sigma_xy","I(x^2)",2.36623272556154e-17,2.23873111435133e-08
"53","N","sigma_xy","I(x^3)",1.38094724201695e-17,-3.07951796524042e-07
"54","N","sigma_xy","I(x^4)",-4.56749401223625e-17,-3.10090824709626e-08
"55","N","sigma_xy","I(y^2)",-9.13994140865822e-18,-1.13139488843345e-07
"56","N","sigma_xy","I(y^3)",-1.25890864840785e-05,9.39767615199971e-05
"57","N","sigma_xy","I(y^4)",-6.73404620739863e-18,5.5907117147406e-07
"58","N","sigma_xy","y:x",0.0508701653823575,0.0551749236077741
"59","N","sigma_xy","y:I(x^2)",0.000316944327759777,0.00035214614009989
"60","N","sigma_xy","y:I(x^3)",-0.00516504945836977,-0.0105117955188177
"61","N","sigma_xy","y:I(x^4)",-0.000851999398787535,-0.000979520383565563
"62","N","sigma_xy","x:I(y^2)",-3.1291575206641e-17,9.67393223860617e-06
"63","N","sigma_xy","x:I(y^3)",-0.04870072482732,-0.0636897466318721
"64","N","sigma_xy","x:I(y^4)",9.13060164472404e-17,-4.93561193328717e-05
"65","N","sigma_yy","(Intercept)",0.0387870018945497,0.0388411335745082
"66","N","sigma_yy","y",5.61301838370198e-18,-2.41502171602896e-10
"67","N","sigma_yy","x",2.91000882161127e-05,5.83873740396334e-05
"68","N","sigma_yy","I(x^2)",0.0449231633109248,0.0435386667422065
"69","N","sigma_yy","I(x^3)",-4.07229021943563e-05,-5.89308828804198e-05
"70","N","sigma_yy","I(x^4)",0.000713222705008251,0.00467117946144655
"71","N","sigma_yy","I(y^2)",0.148115871324088,0.148650377627616
"72","N","sigma_yy","I(y^3)",-3.15930323166309e-17,-1.70266895614173e-09
"73","N","sigma_yy","I(y^4)",-0.0841111155359578,-0.0858103250769863
"74","N","sigma_yy","y:x",-5.67441379683675e-19,-3.94124847896522e-12
"75","N","sigma_yy","y:I(x^2)",-1.49072204067549e-16,3.99179618059871e-09
"76","N","sigma_yy","y:I(x^3)",-5.64057938133881e-17,4.76273513013981e-11
"77","N","sigma_yy","y:I(x^4)",2.9860666708998e-16,-6.14845868740019e-09
"78","N","sigma_yy","x:I(y^2)",-0.000125492289609924,-0.00155681147370137
"79","N","sigma_yy","x:I(y^3)",8.60822003152587e-17,-7.61106912587381e-11
"80","N","sigma_yy","x:I(y^4)",-4.78154030147845e-05,0.00708659694539126
"81","tN","mu_x","(Intercept)",-0.247658442471219,0.000206801291548356
"82","tN","mu_x","y",0.0490350172078876,-8.99501067626345e-05
"83","tN","mu_x","x",-1.38632308279771,0.654108190066029
"84","tN","mu_x","I(x^2)",3.05449634854122,-0.00307123422838995
"85","tN","mu_x","I(x^3)",15.6595180645865,0.812219227651214
"86","tN","mu_x","I(x^4)",-6.54847302875834,0.0107578702435914
"87","tN","mu_x","I(y^2)",2.3490373450624,-0.000519258671138077
"88","tN","mu_x","I(y^3)",-0.11014530734883,-0.000923112292149633
"89","tN","mu_x","I(y^4)",-7.52650061771908,0.000432694628255883
"90","tN","mu_x","y:x",0.0283103150373046,0.000256088109707498
"91","tN","mu_x","y:I(x^2)",-0.567096856474709,0.010658727600553
"92","tN","mu_x","y:I(x^3)",0.318426200210046,-0.0012194309422857
"93","tN","mu_x","y:I(x^4)",1.25038743778331,-0.0461550342668445
"94","tN","mu_x","x:I(y^2)",-53.2075214859656,-0.308485203079895
"95","tN","mu_x","x:I(y^3)",-0.640991834392492,-0.000483769475925028
"96","tN","mu_x","x:I(y^4)",167.777453616842,2.13073853891788
"97","tN","mu_y","(Intercept)",0.000463442836457577,-0.00300416188641271
"98","tN","mu_y","y",0.548662209896154,0.71417674769591
"99","tN","mu_y","x",-0.000770565247633703,0.000137716560509459
"100","tN","mu_y","I(x^2)",-0.0059990955499866,0.00598999229043909
"101","tN","mu_y","I(x^3)",0.00607226471968722,0.00332936240076965
"102","tN","mu_y","I(x^4)",0.0128719622655407,-0.0129388234917821
"103","tN","mu_y","I(y^2)",-0.00399735491012373,0.174886765495424
"104","tN","mu_y","I(y^3)",2.01176517077513,0.827478425528247
"105","tN","mu_y","I(y^4)",0.0127087086536222,-1.20453090333648
"106","tN","mu_y","y:x",-0.0023168948594368,-0.0307250634532823
"107","tN","mu_y","y:I(x^2)",-0.436218201327202,-0.41184622747388
"108","tN","mu_y","y:I(x^3)",-0.0685714101250929,0.035168947646779
"109","tN","mu_y","y:I(x^4)",1.90613398249715,1.25599030826619
"110","tN","mu_y","x:I(y^2)",-0.0244196116424911,-0.0909809931898453
"111","tN","mu_y","x:I(y^3)",0.11527301117617,0.24581934518601
"112","tN","mu_y","x:I(y^4)",0.07545838976273,0.735031132052915
"113","tN","sigma_xx","(Intercept)",0.854818425758985,0.0922870325255682
"114","tN","sigma_xx","y",0.0290952752937098,-1.27407367522079e-11
"115","tN","sigma_xx","x",0.14056551014474,-0.000244922111324432
"116","tN","sigma_xx","I(x^2)",-10.0027568662179,0.15466748064373
"117","tN","sigma_xx","I(x^3)",-1.25403143588581,0.00371047433401061
"118","tN","sigma_xx","I(x^4)",23.334183339593,0.831171621560846
"119","tN","sigma_xx","I(y^2)",-6.67213906720305,0.219273351370196
"120","tN","sigma_xx","I(y^3)",-0.0653556727821549,7.91697866385673e-11
"121","tN","sigma_xx","I(y^4)",22.7608920830929,0.102067437852366
"122","tN","sigma_xx","y:x",0.0156110635813311,-7.990493171924e-10
"123","tN","sigma_xx","y:I(x^2)",-0.336490239070417,-1.04809303811224e-10
"124","tN","sigma_xx","y:I(x^3)",0.175175571222904,2.14906773337705e-09
"125","tN","sigma_xx","y:I(x^4)",0.741924707028482,7.89650471083876e-10
"126","tN","sigma_xx","x:I(y^2)",5.55857645577876,-0.00859503559650778
"127","tN","sigma_xx","x:I(y^3)",-0.352823606170473,3.57150343371409e-09
"128","tN","sigma_xx","x:I(y^4)",-17.3668139578742,0.030379208940537
"129","tN","sigma_xy","(Intercept)",0.000348908902375801,0.000103179442532216
"130","tN","sigma_xy","y",-0.00525071322066152,-0.000125047595262305
"131","tN","sigma_xy","x",-0.000375684136266807,9.14047321437504e-05
"132","tN","sigma_xy","I(x^2)",-0.00444575468851544,-0.00188875783330599
"133","tN","sigma_xy","I(x^3)",0.00283642901847481,-0.000617070746169128
"134","tN","sigma_xy","I(x^4)",0.00952791384425576,0.00486690967144817
"135","tN","sigma_xy","I(y^2)",-0.00310887886307996,-0.000632188003998295
"136","tN","sigma_xy","I(y^3)",0.0112744671261964,0.000542238718717957
"137","tN","sigma_xy","I(y^4)",0.00992223025995776,0.00211794742094584
"138","tN","sigma_xy","y:x",-0.10150846346381,0.00759029383524294
"139","tN","sigma_xy","y:I(x^2)",0.0633051464102087,0.00196433044085699
"140","tN","sigma_xy","y:I(x^3)",0.672596497202241,0.22841268556503
"141","tN","sigma_xy","y:I(x^4)",-0.140292225971991,-0.0055327310624722
"142","tN","sigma_xy","x:I(y^2)",-0.0109123495334481,0.00158596796705982
"143","tN","sigma_xy","x:I(y^3)",0.236808364185704,0.177185565566451
"144","tN","sigma_xy","x:I(y^4)",0.0334923481747361,-0.00518864055396804
"145","tN","sigma_yy","(Intercept)",0.0330602135317558,0.0375713137646426
"146","tN","sigma_yy","y",1.93771148880873e-06,2.17805063865058e-06
"147","tN","sigma_yy","x",0.00030984543906436,-0.000143445078376433
"148","tN","sigma_yy","I(x^2)",0.100711755352531,0.0551311764856998
"149","tN","sigma_yy","I(x^3)",-0.00155664654974239,0.000593434066085616
"150","tN","sigma_yy","I(x^4)",-0.0306894897153157,0.0122369128099656
"151","tN","sigma_yy","I(y^2)",-0.00313907157681233,0.102230090598361
"152","tN","sigma_yy","I(y^3)",-4.47571825257117e-06,7.39217928623853e-06
"153","tN","sigma_yy","I(y^4)",1.81978966177599,1.16102606903559
"154","tN","sigma_yy","y:x",2.35408752652262e-06,-7.00336240064262e-06
"155","tN","sigma_yy","y:I(x^2)",-2.19024630407834e-05,-6.03021944928499e-05
"156","tN","sigma_yy","y:I(x^3)",2.43033646069395e-05,5.01791021984075e-05
"157","tN","sigma_yy","y:I(x^4)",4.82720667579607e-05,0.000153947709590647
"158","tN","sigma_yy","x:I(y^2)",0.00550184030843382,-0.00075352160287275
"159","tN","sigma_yy","x:I(y^3)",-4.99497458579349e-05,-5.40745691124162e-05
"160","tN","sigma_yy","x:I(y^4)",-0.022931966589729,0.00426508575980252
